frontend/benchmarks/cvc4-conj/original/benchmarks-dtt/clam/sg/goal-sg28.smt2

(declare-datatypes () ((Lst (cons (head Int) (tail Lst)) (nil))))
(declare-datatypes () ((Tree (node (data Int) (left Tree) (right Tree)) (leaf))))
(declare-datatypes () ((Pair (mkpair (first Int) (second Int)))
                       (ZLst (zcons (zhead Pair) (ztail ZLst)) (znil))))
(declare-fun less (Int Int) Bool)
(declare-fun plus (Int Int) Int)
(declare-fun mult (Int Int) Int)
(declare-fun qmult (Int Int Int) Int)
(declare-fun exp (Int Int) Int)
(declare-fun qexp (Int Int Int) Int)
(declare-fun fac (Int) Int)
(declare-fun qfac (Int Int) Int)
(declare-fun double (Int) Int)
(declare-fun half (Int) Int)
(declare-fun even (Int) Bool)
(declare-fun append (Lst Lst) Lst)
(declare-fun len (Lst) Int)
(declare-fun drop (Int Lst) Lst)
(declare-fun take (Int Lst) Lst)
(declare-fun count (Int Lst) Int)
(declare-fun mem (Int Lst) Bool)
(declare-fun rev (Lst) Lst)
(declare-fun qreva (Lst Lst) Lst)
(declare-fun insort (Int Lst) Lst)
(declare-fun sorted (Lst) Bool)
(declare-fun sort (Lst) Lst)
(declare-fun rotate (Int Lst) Lst)
(declare-fun revflat (Tree) Lst)
(declare-fun qrevaflat (Tree Lst) Lst)
(declare-fun lst-mem (Int (Set Int)) Bool)
(declare-fun lst-subset ((Set Int) (Set Int)) Bool)
(declare-fun lst-eq ((Set Int) (Set Int)) Bool)
(declare-fun lst-intersection ((Set Int) (Set Int)) (Set Int))
(declare-fun lst-union ((Set Int) (Set Int)) (Set Int))
(define-fun leq ((x Int) (y Int)) Bool (or (= x y) (less x y)))
(assert (forall ((x Lst)) (= (qrevaflat leaf x) x)))
(assert (forall ((d Int) (l Tree) (r Tree) (x Lst)) (= (qrevaflat (node d l r) x) (qrevaflat l (cons d (qrevaflat r x))))))
(assert (forall ((x Lst)) (= (append nil x) x)))
(assert (forall ((x Int) (y Lst) (z Lst)) (= (append (cons x y) z) (cons x (append y z)))))
(assert (= (rev nil) nil))
(assert (forall ((x Int) (y Lst)) (= (rev (cons x y)) (append (rev y) (cons x nil)))))
(assert (forall ((x Lst)) (= (qreva nil x) x)))
(assert (forall ((x Lst) (y Lst) (z Int)) (= (qreva (cons z x) y) (qreva x (cons z y)))))
(assert (= (revflat leaf) nil))
(assert (forall ((d Int) (l Tree) (r Tree)) (= (revflat (node d l r)) (append (revflat l) (cons d (revflat r))))))

; sub-goals
(assert 
(forall ((x Tree) (y Lst)) (= (append (revflat x) y) (qrevaflat x y))) ; G76 
)

; conjecture
(assert (not 
(forall ((x Tree)) (= (revflat x) (qrevaflat x nil))) ; G28 
))
(check-sat)
