experiments/cvc4_benchmarks/expl/sg_clam/goal-sg28.smt2.log
11:21:39 [WARN] Collecting statistics
11:21:39 [WARN]  ex is: zero
11:21:39 [WARN]  ex is: (succ zero)
11:21:39 [WARN]  ex is: (succ (succ zero))
11:21:39 [WARN]  ex is: nil
11:21:39 [WARN]  ex is: (cons autovar_Nat_0 nil)
11:21:39 [WARN]  ex is: (cons autovar_Nat_1 (cons autovar_Nat_0 nil))
11:21:39 [WARN]  ex is: leaf
11:21:39 [WARN]  ex is: (node autovar_Nat_0 leaf leaf)
11:21:39 [WARN]  ex is: (node autovar_Nat_1 (node autovar_Nat_0 leaf leaf) (node autovar_Nat_0 leaf leaf))
11:21:39 [WARN] Proof mode: false
11:21:39 [WARN]  ex is: zero
11:21:39 [WARN]  ex is: (succ zero)
11:21:39 [WARN]  ex is: (succ (succ zero))
11:21:39 [WARN]  ex is: nil
11:21:39 [WARN]  ex is: (cons autovar_Nat_0 nil)
11:21:39 [WARN]  ex is: (cons autovar_Nat_1 (cons autovar_Nat_0 nil))
11:21:39 [WARN]  ex is: leaf
11:21:39 [WARN]  ex is: (node autovar_Nat_0 leaf leaf)
11:21:39 [WARN]  ex is: (node autovar_Nat_1 (node autovar_Nat_0 leaf leaf) (node autovar_Nat_0 leaf leaf))
11:21:39 [WARN] Proof mode: false
11:21:39 [WARN] proved: (append ?ts_ph_Lst_0 nil) => ?ts_ph_Lst_0
11:21:39 [WARN] proved: (leq zero ?ts_ph_Nat_0) => true
11:22:31 [WARN] proved: (append (qrevaflat ?ts_ph_Tree_0 ?ts_ph_Lst_1) ?ts_ph_Lst_0) => (qrevaflat ?ts_ph_Tree_0 (append ?ts_ph_Lst_1 ?ts_ph_Lst_0))
11:22:31 [WARN] proved: (qrevaflat ?ts_ph_Tree_0 (append ?ts_ph_Lst_1 ?ts_ph_Lst_0)) => (append (qrevaflat ?ts_ph_Tree_0 ?ts_ph_Lst_1) ?ts_ph_Lst_0)
11:22:31 [WARN] generalized case_split proof as: (append ?ts_ph_Lst_0 (append ?ts_ph_Lst_1 ?ts_ph_Lst_2)) -- (append (append ?ts_ph_Lst_0 ?ts_ph_Lst_1) ?ts_ph_Lst_2)
11:22:31 [WARN] proved: (append ?ts_ph_Lst_0 (append ?ts_ph_Lst_1 ?ts_ph_Lst_2)) => (append (append ?ts_ph_Lst_0 ?ts_ph_Lst_1) ?ts_ph_Lst_2)
11:22:31 [WARN] proved: (append (append ?ts_ph_Lst_0 ?ts_ph_Lst_1) ?ts_ph_Lst_2) => (append ?ts_ph_Lst_0 (append ?ts_ph_Lst_1 ?ts_ph_Lst_2))
11:22:31 [WARN] proved: (append (qreva ?ts_ph_Lst_0 nil) ?ts_ph_Lst_1) => (qreva ?ts_ph_Lst_0 ?ts_ph_Lst_1)
11:22:31 [WARN] proved: (qreva ?ts_ph_Lst_0 ?ts_ph_Lst_1) => (append (qreva ?ts_ph_Lst_0 nil) ?ts_ph_Lst_1)
11:22:31 [WARN] proved: (qreva (append ?ts_ph_Lst_0 ?ts_ph_Lst_1) nil) => (qreva ?ts_ph_Lst_1 (rev ?ts_ph_Lst_0))
11:22:31 [WARN] proved: (qreva ?ts_ph_Lst_1 (rev ?ts_ph_Lst_0)) => (qreva (append ?ts_ph_Lst_0 ?ts_ph_Lst_1) nil)
11:22:31 [WARN] proved: (qreva (rev ?ts_ph_Lst_0) (revflat ?ts_ph_Tree_1)) => (append ?ts_ph_Lst_0 (revflat ?ts_ph_Tree_1))
11:22:31 [WARN] proved: (append ?ts_ph_Lst_0 (revflat ?ts_ph_Tree_1)) => (qreva (rev ?ts_ph_Lst_0) (revflat ?ts_ph_Tree_1))
11:22:31 [WARN] proved: (cons ?ts_ph_Nat_1 (qreva ?ts_ph_Lst_0 nil)) => (cons ?ts_ph_Nat_1 (rev ?ts_ph_Lst_0))
11:22:31 [WARN] proved: (cons ?ts_ph_Nat_1 (rev ?ts_ph_Lst_0)) => (cons ?ts_ph_Nat_1 (qreva ?ts_ph_Lst_0 nil))
11:22:31 [WARN] proved: (rev (cons ?ts_ph_Nat_1 ?ts_ph_Lst_0)) => (qreva ?ts_ph_Lst_0 (cons ?ts_ph_Nat_1 nil))
11:22:31 [WARN] proved: (qreva ?ts_ph_Lst_0 (cons ?ts_ph_Nat_1 nil)) => (rev (cons ?ts_ph_Nat_1 ?ts_ph_Lst_0))
11:22:31 [WARN] proved: (qreva ?ts_ph_Lst_1 ?ts_ph_Lst_0) => (qreva (qreva ?ts_ph_Lst_0 ?ts_ph_Lst_1) nil)
11:22:31 [WARN] proved: (qreva (qreva ?ts_ph_Lst_0 ?ts_ph_Lst_1) nil) => (qreva ?ts_ph_Lst_1 ?ts_ph_Lst_0)
11:22:31 [WARN] proved: (append (rev ?ts_ph_Lst_0) (rev ?ts_ph_Lst_0)) => (rev (append ?ts_ph_Lst_0 ?ts_ph_Lst_0))
11:22:31 [WARN] proved: (rev (append ?ts_ph_Lst_0 ?ts_ph_Lst_0)) => (append (rev ?ts_ph_Lst_0) (rev ?ts_ph_Lst_0))
11:22:31 [WARN] proved: (leq (succ zero) (succ ?ts_ph_Nat_0)) => true
